; benchmark generated from python API
(set-info :status unknown)
(declare-fun x_months () (_ BitVec 32))
(declare-fun x_beta () (_ BitVec 32))
(declare-fun y_months () (_ BitVec 32))
(declare-fun y_beta () (_ BitVec 32))
(assert
 (bvsle (_ bv4294966096 32) x_months))
(assert
 (bvsge (_ bv1199 32) x_months))
(assert
 (let ((?x27788 (bvsmod x_months (_ bv48 32))))
 (let ((?x13 ((as const (Array (_ BitVec 32) (_ BitVec 32))) (_ bv0 32))))
 (let ((?x15 (store ?x13 (_ bv0 32) (_ bv31 32))))
 (let ((?x18 (store ?x15 (_ bv1 32) (_ bv30 32))))
 (let ((?x20 (store ?x18 (_ bv2 32) (_ bv31 32))))
 (let ((?x22 (store ?x20 (_ bv3 32) (_ bv30 32))))
 (let ((?x24 (store ?x22 (_ bv4 32) (_ bv31 32))))
 (let ((?x26 (store ?x24 (_ bv5 32) (_ bv31 32))))
 (let ((?x28 (store ?x26 (_ bv6 32) (_ bv30 32))))
 (let ((?x30 (store ?x28 (_ bv7 32) (_ bv31 32))))
 (let ((?x32 (store ?x30 (_ bv8 32) (_ bv30 32))))
 (let ((?x34 (store ?x32 (_ bv9 32) (_ bv31 32))))
 (let ((?x36 (store ?x34 (_ bv10 32) (_ bv31 32))))
 (let ((?x39 (store ?x36 (_ bv11 32) (_ bv28 32))))
 (let ((?x41 (store ?x39 (_ bv12 32) (_ bv31 32))))
 (let ((?x43 (store ?x41 (_ bv13 32) (_ bv30 32))))
 (let ((?x45 (store ?x43 (_ bv14 32) (_ bv31 32))))
 (let ((?x47 (store ?x45 (_ bv15 32) (_ bv30 32))))
 (let ((?x49 (store ?x47 (_ bv16 32) (_ bv31 32))))
 (let ((?x51 (store ?x49 (_ bv17 32) (_ bv31 32))))
 (let ((?x53 (store ?x51 (_ bv18 32) (_ bv30 32))))
 (let ((?x55 (store ?x53 (_ bv19 32) (_ bv31 32))))
 (let ((?x57 (store ?x55 (_ bv20 32) (_ bv30 32))))
 (let ((?x59 (store ?x57 (_ bv21 32) (_ bv31 32))))
 (let ((?x61 (store ?x59 (_ bv22 32) (_ bv31 32))))
 (let ((?x63 (store ?x61 (_ bv23 32) (_ bv28 32))))
 (let ((?x65 (store ?x63 (_ bv24 32) (_ bv31 32))))
 (let ((?x67 (store ?x65 (_ bv25 32) (_ bv30 32))))
 (let ((?x69 (store ?x67 (_ bv26 32) (_ bv31 32))))
 (let ((?x71 (store ?x69 (_ bv27 32) (_ bv30 32))))
 (let ((?x72 (store ?x71 (_ bv28 32) (_ bv31 32))))
 (let ((?x74 (store ?x72 (_ bv29 32) (_ bv31 32))))
 (let ((?x75 (store ?x74 (_ bv30 32) (_ bv30 32))))
 (let ((?x76 (store ?x75 (_ bv31 32) (_ bv31 32))))
 (let ((?x78 (store ?x76 (_ bv32 32) (_ bv30 32))))
 (let ((?x80 (store ?x78 (_ bv33 32) (_ bv31 32))))
 (let ((?x82 (store ?x80 (_ bv34 32) (_ bv31 32))))
 (let ((?x84 (store ?x82 (_ bv35 32) (_ bv28 32))))
 (let ((?x86 (store ?x84 (_ bv36 32) (_ bv31 32))))
 (let ((?x88 (store ?x86 (_ bv37 32) (_ bv30 32))))
 (let ((?x90 (store ?x88 (_ bv38 32) (_ bv31 32))))
 (let ((?x92 (store ?x90 (_ bv39 32) (_ bv30 32))))
 (let ((?x94 (store ?x92 (_ bv40 32) (_ bv31 32))))
 (let ((?x96 (store ?x94 (_ bv41 32) (_ bv31 32))))
 (let ((?x98 (store ?x96 (_ bv42 32) (_ bv30 32))))
 (let ((?x100 (store ?x98 (_ bv43 32) (_ bv31 32))))
 (let ((?x102 (store ?x100 (_ bv44 32) (_ bv30 32))))
 (let ((?x104 (store ?x102 (_ bv45 32) (_ bv31 32))))
 (let ((?x106 (store ?x104 (_ bv46 32) (_ bv31 32))))
 (let ((?x108 (store ?x106 (_ bv47 32) (_ bv29 32))))
 (let (($x38357 (or (= (_ bv22802 32) (bvadd x_months (_ bv24003 32))) (= (_ bv25202 32) (bvadd x_months (_ bv24003 32))))))
 (let ((?x778 (ite $x38357 (_ bv28 32) (select ?x108 ?x27788))))
 (let (($x2647 (bvsle (_ bv0 32) x_beta)))
 (and $x2647 (bvslt x_beta ?x778))))))))))))))))))))))))))))))))))))))))))))))))))))))))
(assert
 (bvsle (_ bv4294966096 32) y_months))
(assert
 (bvsge (_ bv1199 32) y_months))
(assert
 (let ((?x43353 (bvsmod y_months (_ bv48 32))))
 (let ((?x13 ((as const (Array (_ BitVec 32) (_ BitVec 32))) (_ bv0 32))))
 (let ((?x15 (store ?x13 (_ bv0 32) (_ bv31 32))))
 (let ((?x18 (store ?x15 (_ bv1 32) (_ bv30 32))))
 (let ((?x20 (store ?x18 (_ bv2 32) (_ bv31 32))))
 (let ((?x22 (store ?x20 (_ bv3 32) (_ bv30 32))))
 (let ((?x24 (store ?x22 (_ bv4 32) (_ bv31 32))))
 (let ((?x26 (store ?x24 (_ bv5 32) (_ bv31 32))))
 (let ((?x28 (store ?x26 (_ bv6 32) (_ bv30 32))))
 (let ((?x30 (store ?x28 (_ bv7 32) (_ bv31 32))))
 (let ((?x32 (store ?x30 (_ bv8 32) (_ bv30 32))))
 (let ((?x34 (store ?x32 (_ bv9 32) (_ bv31 32))))
 (let ((?x36 (store ?x34 (_ bv10 32) (_ bv31 32))))
 (let ((?x39 (store ?x36 (_ bv11 32) (_ bv28 32))))
 (let ((?x41 (store ?x39 (_ bv12 32) (_ bv31 32))))
 (let ((?x43 (store ?x41 (_ bv13 32) (_ bv30 32))))
 (let ((?x45 (store ?x43 (_ bv14 32) (_ bv31 32))))
 (let ((?x47 (store ?x45 (_ bv15 32) (_ bv30 32))))
 (let ((?x49 (store ?x47 (_ bv16 32) (_ bv31 32))))
 (let ((?x51 (store ?x49 (_ bv17 32) (_ bv31 32))))
 (let ((?x53 (store ?x51 (_ bv18 32) (_ bv30 32))))
 (let ((?x55 (store ?x53 (_ bv19 32) (_ bv31 32))))
 (let ((?x57 (store ?x55 (_ bv20 32) (_ bv30 32))))
 (let ((?x59 (store ?x57 (_ bv21 32) (_ bv31 32))))
 (let ((?x61 (store ?x59 (_ bv22 32) (_ bv31 32))))
 (let ((?x63 (store ?x61 (_ bv23 32) (_ bv28 32))))
 (let ((?x65 (store ?x63 (_ bv24 32) (_ bv31 32))))
 (let ((?x67 (store ?x65 (_ bv25 32) (_ bv30 32))))
 (let ((?x69 (store ?x67 (_ bv26 32) (_ bv31 32))))
 (let ((?x71 (store ?x69 (_ bv27 32) (_ bv30 32))))
 (let ((?x72 (store ?x71 (_ bv28 32) (_ bv31 32))))
 (let ((?x74 (store ?x72 (_ bv29 32) (_ bv31 32))))
 (let ((?x75 (store ?x74 (_ bv30 32) (_ bv30 32))))
 (let ((?x76 (store ?x75 (_ bv31 32) (_ bv31 32))))
 (let ((?x78 (store ?x76 (_ bv32 32) (_ bv30 32))))
 (let ((?x80 (store ?x78 (_ bv33 32) (_ bv31 32))))
 (let ((?x82 (store ?x80 (_ bv34 32) (_ bv31 32))))
 (let ((?x84 (store ?x82 (_ bv35 32) (_ bv28 32))))
 (let ((?x86 (store ?x84 (_ bv36 32) (_ bv31 32))))
 (let ((?x88 (store ?x86 (_ bv37 32) (_ bv30 32))))
 (let ((?x90 (store ?x88 (_ bv38 32) (_ bv31 32))))
 (let ((?x92 (store ?x90 (_ bv39 32) (_ bv30 32))))
 (let ((?x94 (store ?x92 (_ bv40 32) (_ bv31 32))))
 (let ((?x96 (store ?x94 (_ bv41 32) (_ bv31 32))))
 (let ((?x98 (store ?x96 (_ bv42 32) (_ bv30 32))))
 (let ((?x100 (store ?x98 (_ bv43 32) (_ bv31 32))))
 (let ((?x102 (store ?x100 (_ bv44 32) (_ bv30 32))))
 (let ((?x104 (store ?x102 (_ bv45 32) (_ bv31 32))))
 (let ((?x106 (store ?x104 (_ bv46 32) (_ bv31 32))))
 (let ((?x108 (store ?x106 (_ bv47 32) (_ bv29 32))))
 (let (($x69644 (or (= (_ bv22802 32) (bvadd y_months (_ bv24003 32))) (= (_ bv25202 32) (bvadd y_months (_ bv24003 32))))))
 (let ((?x17121 (ite $x69644 (_ bv28 32) (select ?x108 ?x43353))))
 (let (($x16319 (bvsle (_ bv0 32) y_beta)))
 (and $x16319 (bvslt y_beta ?x17121))))))))))))))))))))))))))))))))))))))))))))))))))))))))
(assert
 (and (= x_months (bvsub (bvadd (bvmul (_ bv2023 32) (_ bv12 32)) (_ bv1 32)) (_ bv24003 32))) (= (_ bv30 32) x_beta)))
(assert
 (let ((?x6446 (bvadd x_months (_ bv3 32))))
 (let ((?x1945 (bvsmod ?x6446 (_ bv48 32))))
 (let ((?x2818 (ite (bvsgt (_ bv22803 32) (bvadd ?x6446 (_ bv24003 32))) (_ bv1 32) (ite (bvsle (_ bv25203 32) (bvadd ?x6446 (_ bv24003 32))) (_ bv4294967295 32) (_ bv0 32)))))
 (let ((?x13 ((as const (Array (_ BitVec 32) (_ BitVec 32))) (_ bv0 32))))
 (let ((?x15 (store ?x13 (_ bv0 32) (_ bv31 32))))
 (let ((?x18 (store ?x15 (_ bv1 32) (_ bv30 32))))
 (let ((?x20 (store ?x18 (_ bv2 32) (_ bv31 32))))
 (let ((?x22 (store ?x20 (_ bv3 32) (_ bv30 32))))
 (let ((?x24 (store ?x22 (_ bv4 32) (_ bv31 32))))
 (let ((?x26 (store ?x24 (_ bv5 32) (_ bv31 32))))
 (let ((?x28 (store ?x26 (_ bv6 32) (_ bv30 32))))
 (let ((?x30 (store ?x28 (_ bv7 32) (_ bv31 32))))
 (let ((?x32 (store ?x30 (_ bv8 32) (_ bv30 32))))
 (let ((?x34 (store ?x32 (_ bv9 32) (_ bv31 32))))
 (let ((?x36 (store ?x34 (_ bv10 32) (_ bv31 32))))
 (let ((?x39 (store ?x36 (_ bv11 32) (_ bv28 32))))
 (let ((?x41 (store ?x39 (_ bv12 32) (_ bv31 32))))
 (let ((?x43 (store ?x41 (_ bv13 32) (_ bv30 32))))
 (let ((?x45 (store ?x43 (_ bv14 32) (_ bv31 32))))
 (let ((?x47 (store ?x45 (_ bv15 32) (_ bv30 32))))
 (let ((?x49 (store ?x47 (_ bv16 32) (_ bv31 32))))
 (let ((?x51 (store ?x49 (_ bv17 32) (_ bv31 32))))
 (let ((?x53 (store ?x51 (_ bv18 32) (_ bv30 32))))
 (let ((?x55 (store ?x53 (_ bv19 32) (_ bv31 32))))
 (let ((?x57 (store ?x55 (_ bv20 32) (_ bv30 32))))
 (let ((?x59 (store ?x57 (_ bv21 32) (_ bv31 32))))
 (let ((?x61 (store ?x59 (_ bv22 32) (_ bv31 32))))
 (let ((?x63 (store ?x61 (_ bv23 32) (_ bv28 32))))
 (let ((?x65 (store ?x63 (_ bv24 32) (_ bv31 32))))
 (let ((?x67 (store ?x65 (_ bv25 32) (_ bv30 32))))
 (let ((?x69 (store ?x67 (_ bv26 32) (_ bv31 32))))
 (let ((?x71 (store ?x69 (_ bv27 32) (_ bv30 32))))
 (let ((?x72 (store ?x71 (_ bv28 32) (_ bv31 32))))
 (let ((?x74 (store ?x72 (_ bv29 32) (_ bv31 32))))
 (let ((?x75 (store ?x74 (_ bv30 32) (_ bv30 32))))
 (let ((?x76 (store ?x75 (_ bv31 32) (_ bv31 32))))
 (let ((?x78 (store ?x76 (_ bv32 32) (_ bv30 32))))
 (let ((?x80 (store ?x78 (_ bv33 32) (_ bv31 32))))
 (let ((?x82 (store ?x80 (_ bv34 32) (_ bv31 32))))
 (let ((?x84 (store ?x82 (_ bv35 32) (_ bv28 32))))
 (let ((?x86 (store ?x84 (_ bv36 32) (_ bv31 32))))
 (let ((?x88 (store ?x86 (_ bv37 32) (_ bv30 32))))
 (let ((?x90 (store ?x88 (_ bv38 32) (_ bv31 32))))
 (let ((?x92 (store ?x90 (_ bv39 32) (_ bv30 32))))
 (let ((?x94 (store ?x92 (_ bv40 32) (_ bv31 32))))
 (let ((?x96 (store ?x94 (_ bv41 32) (_ bv31 32))))
 (let ((?x98 (store ?x96 (_ bv42 32) (_ bv30 32))))
 (let ((?x100 (store ?x98 (_ bv43 32) (_ bv31 32))))
 (let ((?x102 (store ?x100 (_ bv44 32) (_ bv30 32))))
 (let ((?x104 (store ?x102 (_ bv45 32) (_ bv31 32))))
 (let ((?x106 (store ?x104 (_ bv46 32) (_ bv31 32))))
 (let ((?x108 (store ?x106 (_ bv47 32) (_ bv29 32))))
 (let ((?x6577 (ite (or (= (_ bv22802 32) (bvadd ?x6446 (_ bv24003 32))) (= (_ bv25202 32) (bvadd ?x6446 (_ bv24003 32)))) (_ bv28 32) (select ?x108 ?x1945))))
 (let ((?x3629 (bvsub ?x6577 (_ bv1 32))))
 (let ((?x65310 (ite (bvsgt (_ bv0 32) x_beta) (_ bv0 32) (ite (bvsgt x_beta ?x3629) ?x3629 x_beta))))
 (let ((?x114 (store (store (store (store ?x13 (_ bv0 32) (_ bv0 32)) (_ bv1 32) (_ bv31 32)) (_ bv2 32) (_ bv61 32)) (_ bv3 32) (_ bv92 32))))
 (let ((?x122 (store (store (store (store ?x114 (_ bv4 32) (_ bv122 32)) (_ bv5 32) (_ bv153 32)) (_ bv6 32) (_ bv184 32)) (_ bv7 32) (_ bv214 32))))
 (let ((?x130 (store (store (store (store ?x122 (_ bv8 32) (_ bv245 32)) (_ bv9 32) (_ bv275 32)) (_ bv10 32) (_ bv306 32)) (_ bv11 32) (_ bv337 32))))
 (let ((?x138 (store (store (store (store ?x130 (_ bv12 32) (_ bv365 32)) (_ bv13 32) (_ bv396 32)) (_ bv14 32) (_ bv426 32)) (_ bv15 32) (_ bv457 32))))
 (let ((?x146 (store (store (store (store ?x138 (_ bv16 32) (_ bv487 32)) (_ bv17 32) (_ bv518 32)) (_ bv18 32) (_ bv549 32)) (_ bv19 32) (_ bv579 32))))
 (let ((?x154 (store (store (store (store ?x146 (_ bv20 32) (_ bv610 32)) (_ bv21 32) (_ bv640 32)) (_ bv22 32) (_ bv671 32)) (_ bv23 32) (_ bv702 32))))
 (let ((?x162 (store (store (store (store ?x154 (_ bv24 32) (_ bv730 32)) (_ bv25 32) (_ bv761 32)) (_ bv26 32) (_ bv791 32)) (_ bv27 32) (_ bv822 32))))
 (let ((?x170 (store (store (store (store ?x162 (_ bv28 32) (_ bv852 32)) (_ bv29 32) (_ bv883 32)) (_ bv30 32) (_ bv914 32)) (_ bv31 32) (_ bv944 32))))
 (let ((?x178 (store (store (store (store ?x170 (_ bv32 32) (_ bv975 32)) (_ bv33 32) (_ bv1005 32)) (_ bv34 32) (_ bv1036 32)) (_ bv35 32) (_ bv1067 32))))
 (let ((?x186 (store (store (store (store ?x178 (_ bv36 32) (_ bv1095 32)) (_ bv37 32) (_ bv1126 32)) (_ bv38 32) (_ bv1156 32)) (_ bv39 32) (_ bv1187 32))))
 (let ((?x194 (store (store (store (store ?x186 (_ bv40 32) (_ bv1217 32)) (_ bv41 32) (_ bv1248 32)) (_ bv42 32) (_ bv1279 32)) (_ bv43 32) (_ bv1309 32))))
 (let ((?x202 (store (store (store (store ?x194 (_ bv44 32) (_ bv1340 32)) (_ bv45 32) (_ bv1370 32)) (_ bv46 32) (_ bv1401 32)) (_ bv47 32) (_ bv1432 32))))
 (let ((?x26249 (bvadd (bvadd (bvadd (select ?x202 ?x1945) ?x65310) ?x2818) (_ bv0 32))))
 (let ((?x8175 (ite (bvuge ?x26249 (_ bv2147483648 32)) (bvsub ?x26249 (_ bv0 32)) ?x26249)))
 (let ((?x43567 (bvsdiv ?x8175 (_ bv1461 32))))
 (let ((?x50510 (ite (and (bvuge ?x8175 (_ bv2147483648 32)) (and (distinct (_ bv0 32) (bvsmod ?x8175 (_ bv1461 32))) true)) (bvsub ?x43567 (_ bv1 32)) ?x43567)))
 (let ((?x20434 (bvadd ?x6446 (bvmul ?x50510 (_ bv48 32)))))
 (let ((?x6523 (bvadd (bvadd ?x20434 (bvsub (_ bv1 32) ?x1945)) (_ bv24003 32))))
 (let ((?x42733 (bvadd (select ?x202 (_ bv1 32)) (ite (bvsgt (_ bv22803 32) ?x6523) (_ bv1 32) (ite (bvsle (_ bv25203 32) ?x6523) (_ bv4294967295 32) (_ bv0 32))))))
 (let ((?x49295 (bvsmod ?x26249 (_ bv1461 32))))
 (let ((?x65200 (ite (bvsle (_ bv25203 32) (bvadd (bvadd ?x20434 (bvsub (_ bv2 32) ?x1945)) (_ bv24003 32))) (_ bv4294967295 32) (_ bv0 32))))
 (let ((?x31445 (ite (bvsgt (_ bv22803 32) (bvadd (bvadd ?x20434 (bvsub (_ bv2 32) ?x1945)) (_ bv24003 32))) (_ bv1 32) ?x65200)))
 (let ((?x33435 (ite (bvsge ?x49295 (bvadd (select ?x202 (_ bv2 32)) ?x31445)) (_ bv2 32) (ite (bvsge ?x49295 ?x42733) (_ bv1 32) (_ bv0 32)))))
 (let ((?x7013 (ite (bvsle (_ bv25203 32) (bvadd (bvadd ?x20434 (bvsub (_ bv3 32) ?x1945)) (_ bv24003 32))) (_ bv4294967295 32) (_ bv0 32))))
 (let ((?x11789 (ite (bvsgt (_ bv22803 32) (bvadd (bvadd ?x20434 (bvsub (_ bv3 32) ?x1945)) (_ bv24003 32))) (_ bv1 32) ?x7013)))
 (let ((?x67884 (ite (bvsle (_ bv25203 32) (bvadd (bvadd ?x20434 (bvsub (_ bv4 32) ?x1945)) (_ bv24003 32))) (_ bv4294967295 32) (_ bv0 32))))
 (let ((?x73855 (ite (bvsgt (_ bv22803 32) (bvadd (bvadd ?x20434 (bvsub (_ bv4 32) ?x1945)) (_ bv24003 32))) (_ bv1 32) ?x67884)))
 (let ((?x95263 (ite (bvsge ?x49295 (bvadd (select ?x202 (_ bv4 32)) ?x73855)) (_ bv4 32) (ite (bvsge ?x49295 (bvadd (select ?x202 (_ bv3 32)) ?x11789)) (_ bv3 32) ?x33435))))
 (let ((?x14030 (ite (bvsle (_ bv25203 32) (bvadd (bvadd ?x20434 (bvsub (_ bv5 32) ?x1945)) (_ bv24003 32))) (_ bv4294967295 32) (_ bv0 32))))
 (let ((?x71595 (ite (bvsgt (_ bv22803 32) (bvadd (bvadd ?x20434 (bvsub (_ bv5 32) ?x1945)) (_ bv24003 32))) (_ bv1 32) ?x14030)))
 (let ((?x1098 (ite (bvsle (_ bv25203 32) (bvadd (bvadd ?x20434 (bvsub (_ bv6 32) ?x1945)) (_ bv24003 32))) (_ bv4294967295 32) (_ bv0 32))))
 (let ((?x14677 (ite (bvsgt (_ bv22803 32) (bvadd (bvadd ?x20434 (bvsub (_ bv6 32) ?x1945)) (_ bv24003 32))) (_ bv1 32) ?x1098)))
 (let ((?x58057 (ite (bvsge ?x49295 (bvadd (select ?x202 (_ bv6 32)) ?x14677)) (_ bv6 32) (ite (bvsge ?x49295 (bvadd (select ?x202 (_ bv5 32)) ?x71595)) (_ bv5 32) ?x95263))))
 (let ((?x1402 (ite (bvsle (_ bv25203 32) (bvadd (bvadd ?x20434 (bvsub (_ bv7 32) ?x1945)) (_ bv24003 32))) (_ bv4294967295 32) (_ bv0 32))))
 (let ((?x74113 (ite (bvsgt (_ bv22803 32) (bvadd (bvadd ?x20434 (bvsub (_ bv7 32) ?x1945)) (_ bv24003 32))) (_ bv1 32) ?x1402)))
 (let ((?x29516 (ite (bvsle (_ bv25203 32) (bvadd (bvadd ?x20434 (bvsub (_ bv8 32) ?x1945)) (_ bv24003 32))) (_ bv4294967295 32) (_ bv0 32))))
 (let ((?x19198 (ite (bvsgt (_ bv22803 32) (bvadd (bvadd ?x20434 (bvsub (_ bv8 32) ?x1945)) (_ bv24003 32))) (_ bv1 32) ?x29516)))
 (let ((?x32987 (ite (bvsge ?x49295 (bvadd (select ?x202 (_ bv8 32)) ?x19198)) (_ bv8 32) (ite (bvsge ?x49295 (bvadd (select ?x202 (_ bv7 32)) ?x74113)) (_ bv7 32) ?x58057))))
 (let ((?x61299 (ite (bvsle (_ bv25203 32) (bvadd (bvadd ?x20434 (bvsub (_ bv9 32) ?x1945)) (_ bv24003 32))) (_ bv4294967295 32) (_ bv0 32))))
 (let ((?x81321 (ite (bvsgt (_ bv22803 32) (bvadd (bvadd ?x20434 (bvsub (_ bv9 32) ?x1945)) (_ bv24003 32))) (_ bv1 32) ?x61299)))
 (let ((?x61026 (ite (bvsle (_ bv25203 32) (bvadd (bvadd ?x20434 (bvsub (_ bv10 32) ?x1945)) (_ bv24003 32))) (_ bv4294967295 32) (_ bv0 32))))
 (let ((?x16919 (ite (bvsgt (_ bv22803 32) (bvadd (bvadd ?x20434 (bvsub (_ bv10 32) ?x1945)) (_ bv24003 32))) (_ bv1 32) ?x61026)))
 (let ((?x32301 (ite (bvsge ?x49295 (bvadd (select ?x202 (_ bv10 32)) ?x16919)) (_ bv10 32) (ite (bvsge ?x49295 (bvadd (select ?x202 (_ bv9 32)) ?x81321)) (_ bv9 32) ?x32987))))
 (let ((?x57258 (ite (bvsle (_ bv25203 32) (bvadd (bvadd ?x20434 (bvsub (_ bv11 32) ?x1945)) (_ bv24003 32))) (_ bv4294967295 32) (_ bv0 32))))
 (let ((?x17842 (ite (bvsgt (_ bv22803 32) (bvadd (bvadd ?x20434 (bvsub (_ bv11 32) ?x1945)) (_ bv24003 32))) (_ bv1 32) ?x57258)))
 (let ((?x32697 (ite (bvsle (_ bv25203 32) (bvadd (bvadd ?x20434 (bvsub (_ bv12 32) ?x1945)) (_ bv24003 32))) (_ bv4294967295 32) (_ bv0 32))))
 (let ((?x81426 (ite (bvsgt (_ bv22803 32) (bvadd (bvadd ?x20434 (bvsub (_ bv12 32) ?x1945)) (_ bv24003 32))) (_ bv1 32) ?x32697)))
 (let ((?x915 (ite (bvsge ?x49295 (bvadd (select ?x202 (_ bv12 32)) ?x81426)) (_ bv12 32) (ite (bvsge ?x49295 (bvadd (select ?x202 (_ bv11 32)) ?x17842)) (_ bv11 32) ?x32301))))
 (let ((?x3183 (ite (bvsle (_ bv25203 32) (bvadd (bvadd ?x20434 (bvsub (_ bv13 32) ?x1945)) (_ bv24003 32))) (_ bv4294967295 32) (_ bv0 32))))
 (let ((?x459 (ite (bvsgt (_ bv22803 32) (bvadd (bvadd ?x20434 (bvsub (_ bv13 32) ?x1945)) (_ bv24003 32))) (_ bv1 32) ?x3183)))
 (let ((?x469 (ite (bvsle (_ bv25203 32) (bvadd (bvadd ?x20434 (bvsub (_ bv14 32) ?x1945)) (_ bv24003 32))) (_ bv4294967295 32) (_ bv0 32))))
 (let ((?x43139 (ite (bvsgt (_ bv22803 32) (bvadd (bvadd ?x20434 (bvsub (_ bv14 32) ?x1945)) (_ bv24003 32))) (_ bv1 32) ?x469)))
 (let ((?x42883 (ite (bvsge ?x49295 (bvadd (select ?x202 (_ bv14 32)) ?x43139)) (_ bv14 32) (ite (bvsge ?x49295 (bvadd (select ?x202 (_ bv13 32)) ?x459)) (_ bv13 32) ?x915))))
 (let ((?x76898 (ite (bvsle (_ bv25203 32) (bvadd (bvadd ?x20434 (bvsub (_ bv15 32) ?x1945)) (_ bv24003 32))) (_ bv4294967295 32) (_ bv0 32))))
 (let ((?x8156 (ite (bvsgt (_ bv22803 32) (bvadd (bvadd ?x20434 (bvsub (_ bv15 32) ?x1945)) (_ bv24003 32))) (_ bv1 32) ?x76898)))
 (let ((?x49170 (ite (bvsle (_ bv25203 32) (bvadd (bvadd ?x20434 (bvsub (_ bv16 32) ?x1945)) (_ bv24003 32))) (_ bv4294967295 32) (_ bv0 32))))
 (let ((?x37068 (ite (bvsgt (_ bv22803 32) (bvadd (bvadd ?x20434 (bvsub (_ bv16 32) ?x1945)) (_ bv24003 32))) (_ bv1 32) ?x49170)))
 (let ((?x61605 (ite (bvsge ?x49295 (bvadd (select ?x202 (_ bv16 32)) ?x37068)) (_ bv16 32) (ite (bvsge ?x49295 (bvadd (select ?x202 (_ bv15 32)) ?x8156)) (_ bv15 32) ?x42883))))
 (let ((?x43387 (ite (bvsle (_ bv25203 32) (bvadd (bvadd ?x20434 (bvsub (_ bv17 32) ?x1945)) (_ bv24003 32))) (_ bv4294967295 32) (_ bv0 32))))
 (let ((?x50561 (ite (bvsgt (_ bv22803 32) (bvadd (bvadd ?x20434 (bvsub (_ bv17 32) ?x1945)) (_ bv24003 32))) (_ bv1 32) ?x43387)))
 (let ((?x42609 (ite (bvsle (_ bv25203 32) (bvadd (bvadd ?x20434 (bvsub (_ bv18 32) ?x1945)) (_ bv24003 32))) (_ bv4294967295 32) (_ bv0 32))))
 (let ((?x836 (ite (bvsgt (_ bv22803 32) (bvadd (bvadd ?x20434 (bvsub (_ bv18 32) ?x1945)) (_ bv24003 32))) (_ bv1 32) ?x42609)))
 (let ((?x2850 (ite (bvsge ?x49295 (bvadd (select ?x202 (_ bv18 32)) ?x836)) (_ bv18 32) (ite (bvsge ?x49295 (bvadd (select ?x202 (_ bv17 32)) ?x50561)) (_ bv17 32) ?x61605))))
 (let ((?x4204 (ite (bvsle (_ bv25203 32) (bvadd (bvadd ?x20434 (bvsub (_ bv19 32) ?x1945)) (_ bv24003 32))) (_ bv4294967295 32) (_ bv0 32))))
 (let ((?x26443 (ite (bvsgt (_ bv22803 32) (bvadd (bvadd ?x20434 (bvsub (_ bv19 32) ?x1945)) (_ bv24003 32))) (_ bv1 32) ?x4204)))
 (let ((?x44694 (ite (bvsle (_ bv25203 32) (bvadd (bvadd ?x20434 (bvsub (_ bv20 32) ?x1945)) (_ bv24003 32))) (_ bv4294967295 32) (_ bv0 32))))
 (let ((?x29710 (ite (bvsgt (_ bv22803 32) (bvadd (bvadd ?x20434 (bvsub (_ bv20 32) ?x1945)) (_ bv24003 32))) (_ bv1 32) ?x44694)))
 (let ((?x56750 (ite (bvsge ?x49295 (bvadd (select ?x202 (_ bv20 32)) ?x29710)) (_ bv20 32) (ite (bvsge ?x49295 (bvadd (select ?x202 (_ bv19 32)) ?x26443)) (_ bv19 32) ?x2850))))
 (let ((?x39315 (ite (bvsle (_ bv25203 32) (bvadd (bvadd ?x20434 (bvsub (_ bv21 32) ?x1945)) (_ bv24003 32))) (_ bv4294967295 32) (_ bv0 32))))
 (let ((?x44570 (ite (bvsgt (_ bv22803 32) (bvadd (bvadd ?x20434 (bvsub (_ bv21 32) ?x1945)) (_ bv24003 32))) (_ bv1 32) ?x39315)))
 (let ((?x75889 (ite (bvsle (_ bv25203 32) (bvadd (bvadd ?x20434 (bvsub (_ bv22 32) ?x1945)) (_ bv24003 32))) (_ bv4294967295 32) (_ bv0 32))))
 (let ((?x54598 (ite (bvsgt (_ bv22803 32) (bvadd (bvadd ?x20434 (bvsub (_ bv22 32) ?x1945)) (_ bv24003 32))) (_ bv1 32) ?x75889)))
 (let ((?x35252 (ite (bvsge ?x49295 (bvadd (select ?x202 (_ bv22 32)) ?x54598)) (_ bv22 32) (ite (bvsge ?x49295 (bvadd (select ?x202 (_ bv21 32)) ?x44570)) (_ bv21 32) ?x56750))))
 (let ((?x7757 (ite (bvsle (_ bv25203 32) (bvadd (bvadd ?x20434 (bvsub (_ bv23 32) ?x1945)) (_ bv24003 32))) (_ bv4294967295 32) (_ bv0 32))))
 (let ((?x19270 (ite (bvsgt (_ bv22803 32) (bvadd (bvadd ?x20434 (bvsub (_ bv23 32) ?x1945)) (_ bv24003 32))) (_ bv1 32) ?x7757)))
 (let ((?x4079 (ite (bvsle (_ bv25203 32) (bvadd (bvadd ?x20434 (bvsub (_ bv24 32) ?x1945)) (_ bv24003 32))) (_ bv4294967295 32) (_ bv0 32))))
 (let ((?x20387 (ite (bvsgt (_ bv22803 32) (bvadd (bvadd ?x20434 (bvsub (_ bv24 32) ?x1945)) (_ bv24003 32))) (_ bv1 32) ?x4079)))
 (let ((?x40902 (ite (bvsge ?x49295 (bvadd (select ?x202 (_ bv24 32)) ?x20387)) (_ bv24 32) (ite (bvsge ?x49295 (bvadd (select ?x202 (_ bv23 32)) ?x19270)) (_ bv23 32) ?x35252))))
 (let ((?x76466 (ite (bvsle (_ bv25203 32) (bvadd (bvadd ?x20434 (bvsub (_ bv25 32) ?x1945)) (_ bv24003 32))) (_ bv4294967295 32) (_ bv0 32))))
 (let ((?x84981 (ite (bvsgt (_ bv22803 32) (bvadd (bvadd ?x20434 (bvsub (_ bv25 32) ?x1945)) (_ bv24003 32))) (_ bv1 32) ?x76466)))
 (let ((?x79723 (ite (bvsle (_ bv25203 32) (bvadd (bvadd ?x20434 (bvsub (_ bv26 32) ?x1945)) (_ bv24003 32))) (_ bv4294967295 32) (_ bv0 32))))
 (let ((?x14119 (ite (bvsgt (_ bv22803 32) (bvadd (bvadd ?x20434 (bvsub (_ bv26 32) ?x1945)) (_ bv24003 32))) (_ bv1 32) ?x79723)))
 (let ((?x2492 (ite (bvsge ?x49295 (bvadd (select ?x202 (_ bv26 32)) ?x14119)) (_ bv26 32) (ite (bvsge ?x49295 (bvadd (select ?x202 (_ bv25 32)) ?x84981)) (_ bv25 32) ?x40902))))
 (let ((?x21308 (ite (bvsle (_ bv25203 32) (bvadd (bvadd ?x20434 (bvsub (_ bv27 32) ?x1945)) (_ bv24003 32))) (_ bv4294967295 32) (_ bv0 32))))
 (let ((?x93017 (ite (bvsgt (_ bv22803 32) (bvadd (bvadd ?x20434 (bvsub (_ bv27 32) ?x1945)) (_ bv24003 32))) (_ bv1 32) ?x21308)))
 (let ((?x60165 (ite (bvsle (_ bv25203 32) (bvadd (bvadd ?x20434 (bvsub (_ bv28 32) ?x1945)) (_ bv24003 32))) (_ bv4294967295 32) (_ bv0 32))))
 (let ((?x77812 (ite (bvsgt (_ bv22803 32) (bvadd (bvadd ?x20434 (bvsub (_ bv28 32) ?x1945)) (_ bv24003 32))) (_ bv1 32) ?x60165)))
 (let ((?x18442 (ite (bvsge ?x49295 (bvadd (select ?x202 (_ bv28 32)) ?x77812)) (_ bv28 32) (ite (bvsge ?x49295 (bvadd (select ?x202 (_ bv27 32)) ?x93017)) (_ bv27 32) ?x2492))))
 (let ((?x51945 (ite (bvsle (_ bv25203 32) (bvadd (bvadd ?x20434 (bvsub (_ bv29 32) ?x1945)) (_ bv24003 32))) (_ bv4294967295 32) (_ bv0 32))))
 (let ((?x61204 (ite (bvsgt (_ bv22803 32) (bvadd (bvadd ?x20434 (bvsub (_ bv29 32) ?x1945)) (_ bv24003 32))) (_ bv1 32) ?x51945)))
 (let ((?x93113 (ite (bvsle (_ bv25203 32) (bvadd (bvadd ?x20434 (bvsub (_ bv30 32) ?x1945)) (_ bv24003 32))) (_ bv4294967295 32) (_ bv0 32))))
 (let ((?x93065 (ite (bvsgt (_ bv22803 32) (bvadd (bvadd ?x20434 (bvsub (_ bv30 32) ?x1945)) (_ bv24003 32))) (_ bv1 32) ?x93113)))
 (let ((?x88573 (ite (bvsge ?x49295 (bvadd (select ?x202 (_ bv30 32)) ?x93065)) (_ bv30 32) (ite (bvsge ?x49295 (bvadd (select ?x202 (_ bv29 32)) ?x61204)) (_ bv29 32) ?x18442))))
 (let ((?x93123 (ite (bvsle (_ bv25203 32) (bvadd (bvadd ?x20434 (bvsub (_ bv31 32) ?x1945)) (_ bv24003 32))) (_ bv4294967295 32) (_ bv0 32))))
 (let ((?x55793 (ite (bvsgt (_ bv22803 32) (bvadd (bvadd ?x20434 (bvsub (_ bv31 32) ?x1945)) (_ bv24003 32))) (_ bv1 32) ?x93123)))
 (let ((?x24656 (ite (bvsle (_ bv25203 32) (bvadd (bvadd ?x20434 (bvsub (_ bv32 32) ?x1945)) (_ bv24003 32))) (_ bv4294967295 32) (_ bv0 32))))
 (let ((?x53254 (ite (bvsgt (_ bv22803 32) (bvadd (bvadd ?x20434 (bvsub (_ bv32 32) ?x1945)) (_ bv24003 32))) (_ bv1 32) ?x24656)))
 (let ((?x93062 (ite (bvsge ?x49295 (bvadd (select ?x202 (_ bv32 32)) ?x53254)) (_ bv32 32) (ite (bvsge ?x49295 (bvadd (select ?x202 (_ bv31 32)) ?x55793)) (_ bv31 32) ?x88573))))
 (let ((?x49841 (ite (bvsle (_ bv25203 32) (bvadd (bvadd ?x20434 (bvsub (_ bv33 32) ?x1945)) (_ bv24003 32))) (_ bv4294967295 32) (_ bv0 32))))
 (let ((?x46505 (ite (bvsgt (_ bv22803 32) (bvadd (bvadd ?x20434 (bvsub (_ bv33 32) ?x1945)) (_ bv24003 32))) (_ bv1 32) ?x49841)))
 (let ((?x65214 (ite (bvsle (_ bv25203 32) (bvadd (bvadd ?x20434 (bvsub (_ bv34 32) ?x1945)) (_ bv24003 32))) (_ bv4294967295 32) (_ bv0 32))))
 (let ((?x27645 (ite (bvsgt (_ bv22803 32) (bvadd (bvadd ?x20434 (bvsub (_ bv34 32) ?x1945)) (_ bv24003 32))) (_ bv1 32) ?x65214)))
 (let ((?x69525 (ite (bvsge ?x49295 (bvadd (select ?x202 (_ bv34 32)) ?x27645)) (_ bv34 32) (ite (bvsge ?x49295 (bvadd (select ?x202 (_ bv33 32)) ?x46505)) (_ bv33 32) ?x93062))))
 (let ((?x6932 (ite (bvsle (_ bv25203 32) (bvadd (bvadd ?x20434 (bvsub (_ bv35 32) ?x1945)) (_ bv24003 32))) (_ bv4294967295 32) (_ bv0 32))))
 (let ((?x4830 (ite (bvsgt (_ bv22803 32) (bvadd (bvadd ?x20434 (bvsub (_ bv35 32) ?x1945)) (_ bv24003 32))) (_ bv1 32) ?x6932)))
 (let ((?x1626 (ite (bvsle (_ bv25203 32) (bvadd (bvadd ?x20434 (bvsub (_ bv36 32) ?x1945)) (_ bv24003 32))) (_ bv4294967295 32) (_ bv0 32))))
 (let ((?x73922 (ite (bvsgt (_ bv22803 32) (bvadd (bvadd ?x20434 (bvsub (_ bv36 32) ?x1945)) (_ bv24003 32))) (_ bv1 32) ?x1626)))
 (let ((?x23669 (ite (bvsge ?x49295 (bvadd (select ?x202 (_ bv36 32)) ?x73922)) (_ bv36 32) (ite (bvsge ?x49295 (bvadd (select ?x202 (_ bv35 32)) ?x4830)) (_ bv35 32) ?x69525))))
 (let ((?x56868 (ite (bvsle (_ bv25203 32) (bvadd (bvadd ?x20434 (bvsub (_ bv37 32) ?x1945)) (_ bv24003 32))) (_ bv4294967295 32) (_ bv0 32))))
 (let ((?x23983 (ite (bvsgt (_ bv22803 32) (bvadd (bvadd ?x20434 (bvsub (_ bv37 32) ?x1945)) (_ bv24003 32))) (_ bv1 32) ?x56868)))
 (let ((?x44755 (ite (bvsle (_ bv25203 32) (bvadd (bvadd ?x20434 (bvsub (_ bv38 32) ?x1945)) (_ bv24003 32))) (_ bv4294967295 32) (_ bv0 32))))
 (let ((?x41877 (ite (bvsgt (_ bv22803 32) (bvadd (bvadd ?x20434 (bvsub (_ bv38 32) ?x1945)) (_ bv24003 32))) (_ bv1 32) ?x44755)))
 (let ((?x80341 (ite (bvsge ?x49295 (bvadd (select ?x202 (_ bv38 32)) ?x41877)) (_ bv38 32) (ite (bvsge ?x49295 (bvadd (select ?x202 (_ bv37 32)) ?x23983)) (_ bv37 32) ?x23669))))
 (let ((?x75991 (ite (bvsle (_ bv25203 32) (bvadd (bvadd ?x20434 (bvsub (_ bv39 32) ?x1945)) (_ bv24003 32))) (_ bv4294967295 32) (_ bv0 32))))
 (let ((?x35754 (ite (bvsgt (_ bv22803 32) (bvadd (bvadd ?x20434 (bvsub (_ bv39 32) ?x1945)) (_ bv24003 32))) (_ bv1 32) ?x75991)))
 (let ((?x3674 (ite (bvsle (_ bv25203 32) (bvadd (bvadd ?x20434 (bvsub (_ bv40 32) ?x1945)) (_ bv24003 32))) (_ bv4294967295 32) (_ bv0 32))))
 (let ((?x46396 (ite (bvsgt (_ bv22803 32) (bvadd (bvadd ?x20434 (bvsub (_ bv40 32) ?x1945)) (_ bv24003 32))) (_ bv1 32) ?x3674)))
 (let ((?x40442 (ite (bvsge ?x49295 (bvadd (select ?x202 (_ bv40 32)) ?x46396)) (_ bv40 32) (ite (bvsge ?x49295 (bvadd (select ?x202 (_ bv39 32)) ?x35754)) (_ bv39 32) ?x80341))))
 (let ((?x46854 (ite (bvsle (_ bv25203 32) (bvadd (bvadd ?x20434 (bvsub (_ bv41 32) ?x1945)) (_ bv24003 32))) (_ bv4294967295 32) (_ bv0 32))))
 (let ((?x9370 (ite (bvsgt (_ bv22803 32) (bvadd (bvadd ?x20434 (bvsub (_ bv41 32) ?x1945)) (_ bv24003 32))) (_ bv1 32) ?x46854)))
 (let ((?x32641 (ite (bvsle (_ bv25203 32) (bvadd (bvadd ?x20434 (bvsub (_ bv42 32) ?x1945)) (_ bv24003 32))) (_ bv4294967295 32) (_ bv0 32))))
 (let ((?x83278 (ite (bvsgt (_ bv22803 32) (bvadd (bvadd ?x20434 (bvsub (_ bv42 32) ?x1945)) (_ bv24003 32))) (_ bv1 32) ?x32641)))
 (let ((?x73859 (ite (bvsge ?x49295 (bvadd (select ?x202 (_ bv42 32)) ?x83278)) (_ bv42 32) (ite (bvsge ?x49295 (bvadd (select ?x202 (_ bv41 32)) ?x9370)) (_ bv41 32) ?x40442))))
 (let ((?x60893 (ite (bvsle (_ bv25203 32) (bvadd (bvadd ?x20434 (bvsub (_ bv43 32) ?x1945)) (_ bv24003 32))) (_ bv4294967295 32) (_ bv0 32))))
 (let ((?x55269 (ite (bvsgt (_ bv22803 32) (bvadd (bvadd ?x20434 (bvsub (_ bv43 32) ?x1945)) (_ bv24003 32))) (_ bv1 32) ?x60893)))
 (let ((?x95163 (ite (bvsle (_ bv25203 32) (bvadd (bvadd ?x20434 (bvsub (_ bv44 32) ?x1945)) (_ bv24003 32))) (_ bv4294967295 32) (_ bv0 32))))
 (let ((?x82653 (ite (bvsgt (_ bv22803 32) (bvadd (bvadd ?x20434 (bvsub (_ bv44 32) ?x1945)) (_ bv24003 32))) (_ bv1 32) ?x95163)))
 (let ((?x39058 (ite (bvsge ?x49295 (bvadd (select ?x202 (_ bv44 32)) ?x82653)) (_ bv44 32) (ite (bvsge ?x49295 (bvadd (select ?x202 (_ bv43 32)) ?x55269)) (_ bv43 32) ?x73859))))
 (let ((?x25693 (ite (bvsle (_ bv25203 32) (bvadd (bvadd ?x20434 (bvsub (_ bv45 32) ?x1945)) (_ bv24003 32))) (_ bv4294967295 32) (_ bv0 32))))
 (let ((?x16110 (ite (bvsgt (_ bv22803 32) (bvadd (bvadd ?x20434 (bvsub (_ bv45 32) ?x1945)) (_ bv24003 32))) (_ bv1 32) ?x25693)))
 (let ((?x87717 (ite (bvsle (_ bv25203 32) (bvadd (bvadd ?x20434 (bvsub (_ bv46 32) ?x1945)) (_ bv24003 32))) (_ bv4294967295 32) (_ bv0 32))))
 (let ((?x53694 (ite (bvsgt (_ bv22803 32) (bvadd (bvadd ?x20434 (bvsub (_ bv46 32) ?x1945)) (_ bv24003 32))) (_ bv1 32) ?x87717)))
 (let ((?x56843 (ite (bvsge ?x49295 (bvadd (select ?x202 (_ bv46 32)) ?x53694)) (_ bv46 32) (ite (bvsge ?x49295 (bvadd (select ?x202 (_ bv45 32)) ?x16110)) (_ bv45 32) ?x39058))))
 (let ((?x32644 (ite (bvsle (_ bv25203 32) (bvadd (bvadd ?x20434 (bvsub (_ bv47 32) ?x1945)) (_ bv24003 32))) (_ bv4294967295 32) (_ bv0 32))))
 (let ((?x42517 (ite (bvsgt (_ bv22803 32) (bvadd (bvadd ?x20434 (bvsub (_ bv47 32) ?x1945)) (_ bv24003 32))) (_ bv1 32) ?x32644)))
 (let ((?x2595 (ite (bvsge ?x49295 (bvadd (select ?x202 (_ bv47 32)) ?x42517)) (_ bv47 32) ?x56843)))
 (let ((?x12322 (bvadd ?x20434 (bvsub ?x2595 ?x1945))))
 (let ((?x41643 (bvadd ?x12322 (_ bv24003 32))))
 (let ((?x3505 (bvadd (select ?x202 ?x2595) (ite (bvsgt (_ bv22803 32) ?x41643) (_ bv1 32) (ite (bvsle (_ bv25203 32) ?x41643) (_ bv4294967295 32) (_ bv0 32))))))
 (let ((?x1932 (bvsub ?x49295 ?x3505)))
 (let ((?x19749 (ite (or (= (_ bv22802 32) ?x41643) (= (_ bv25202 32) ?x41643)) (_ bv28 32) (select ?x108 ?x2595))))
 (let ((?x16815 (ite (= (_ bv1 32) (ite (bvsge ?x1932 ?x19749) (_ bv1 32) (_ bv0 32))) (bvsub ?x1932 ?x19749) ?x1932)))
 (and (= y_months (bvadd ?x12322 (ite (bvsge ?x1932 ?x19749) (_ bv1 32) (_ bv0 32)))) (= y_beta ?x16815))))))))))))))))))))))))))))))))))))))))))))))))))))))))))))))))))))))))))))))))))))))))))))))))))))))))))))))))))))))))))))))))))))))))))))))))))))))))))))))))))))))))))))))))))))))))))))))))))))))))
(assert
 (and (= y_months (bvsub (bvadd (bvmul (_ bv2023 32) (_ bv12 32)) (_ bv4 32)) (_ bv24003 32))) (= (_ bv29 32) y_beta)))
(check-sat)
